(set-logic QF_S)
(declare-fun var0 () String)
(assert (str.in.re var0 (re.++ (re.+ (re.union (str.to.re "000") (str.to.re "11"))) (re.++ (re.union (re.union (str.to.re "222") (str.to.re "33")) (re.union (str.to.re "4") (str.to.re "555"))) (re.++ (re.+ (re.* (str.to.re "66"))) (re.++ (re.+ (re.* (str.to.re "777"))) (re.++ (re.union (re.* (str.to.re "8")) (re.+ (str.to.re "99"))) (re.++ (re.union (re.union (str.to.re "aa") (str.to.re "b")) (re.union (str.to.re "cc") (str.to.re "d"))) (re.++ (re.union (re.union (str.to.re "e") (str.to.re "f")) (re.+ (str.to.re "ggg"))) (re.++ (re.* (re.* (str.to.re "hh"))) (re.++ (re.* (re.* (str.to.re "i"))) (re.++ (re.* (re.+ (str.to.re "jj"))) (re.+ (re.* (str.to.re "kk")))))))))))))))
(assert (not (str.in.re var0 (re.++ (re.union (re.union (str.to.re "00") (str.to.re "1")) (re.* (str.to.re "2"))) (re.++ (re.+ (re.* (str.to.re "333"))) (re.++ (re.+ (re.+ (str.to.re "4"))) (re.++ (re.* (re.+ (str.to.re "55"))) (re.++ (re.union (re.* (str.to.re "666")) (re.* (str.to.re "77"))) (re.++ (re.+ (re.union (str.to.re "888") (str.to.re "999"))) (re.++ (re.+ (re.union (str.to.re "aaa") (str.to.re "bb"))) (re.++ (re.+ (re.union (str.to.re "cc") (str.to.re "ddd"))) (re.++ (re.* (re.union (str.to.re "ee") (str.to.re "f"))) (re.++ (re.union (re.union (str.to.re "ggg") (str.to.re "hh")) (re.union (str.to.re "i") (str.to.re "jj"))) (re.* (re.+ (str.to.re "k"))))))))))))))))
(check-sat)